
Gurobi 13.0.1 (linux64) logging started Sat Mar 21 14:34:29 2026

Set parameter LogFile to value "logs/50B_3F_robust_gamma_0d75_theta_0d05199999999999999_2026-03-21_14h34m08s.log"
Set parameter MIPGap to value 0.005
Set parameter OptimalityTol to value 0.005
Gurobi Optimizer version 13.0.1 build v13.0.1rc0 (linux64 - "openSUSE Tumbleweed")

CPU model: Intel(R) Core(TM) i7-10610U CPU @ 1.80GHz, instruction set [SSE2|AVX|AVX2]
Thread count: 4 physical cores, 8 logical processors, using up to 8 threads

Non-default parameters:
TimeLimit  3600
SoftMemLimit  12
MIPGap  0.005
OptimalityTol  0.005

Optimize a model with 30471 rows, 390571 columns and 1204034 nonzeros (Max)
Model fingerprint: 0x14b953e2
Model has 367561 linear objective coefficients
Variable types: 8071 continuous, 382500 integer (382500 binary)
Coefficient statistics:
  Matrix range     [3e-05, 1e+05]
  Objective range  [1e+00, 3e+03]
  Bounds range     [1e+00, 1e+05]
  RHS range        [8e-03, 1e+05]

Presolve removed 15658 rows and 282196 columns
Presolve time: 1.43s
Presolved: 14813 rows, 108375 columns, 345908 nonzeros
Variable types: 3921 continuous, 104454 integer (104454 binary)
Found heuristic solution: objective -3.92155e+08
Deterministic concurrent LP optimizer: primal and dual simplex
Showing primal log only...


Root simplex log...

Iteration    Objective       Primal Inf.    Dual Inf.      Time
   34249    6.2991550e+07   0.000000e+00   3.044232e+11      5s
Concurrent spin time: 1.55s (can be avoided by choosing Method=3)

Solved with dual simplex

Root simplex log...

Iteration    Objective       Primal Inf.    Dual Inf.      Time
   10804    6.7693800e+07   0.000000e+00   0.000000e+00      7s

Root relaxation: objective 6.769380e+07, 10804 iterations, 5.35 seconds (3.24 work units)

    Nodes    |    Current Node    |     Objective Bounds      |     Work
 Expl Unexpl |  Obj  Depth IntInf | Incumbent    BestBd   Gap | It/Node Time

     0     0 6.7694e+07    0 3836 -3.922e+08 6.7694e+07   117%     -    8s
H    0     0                    -1.69952e+08 6.7694e+07   140%     -    9s
H    0     0                    -1.08913e+08 6.7694e+07   162%     -    9s
H    0     0                    -9.18747e+07 6.7694e+07   174%     -   10s
H    0     0                    -6.81285e+07 6.7694e+07   199%     -   11s
H    0     0                    -3.91798e+07 6.7694e+07   273%     -   11s
H    0     0                    -6711596.768 6.7694e+07  1109%     -   14s
H    0     0                    -6706634.056 6.7694e+07  1109%     -   15s
H    0     0                    -1077493.666 6.7694e+07  6383%     -   15s
H    0     0                    -1077177.774 6.7694e+07  6384%     -   15s
H    0     0                    -1071919.417 6.7694e+07  6415%     -   21s
H    0     0                    8342950.1692 6.7694e+07   711%     -   23s
H    0     0                    1.013647e+07 6.7694e+07   568%     -   27s
H    0     0                    1.483924e+07 6.7694e+07   356%     -   27s
H    0     0                    2.342294e+07 6.7694e+07   189%     -   27s
H    0     0                    5.597312e+07 6.7694e+07  20.9%     -   28s
H    0     0                    5.597318e+07 6.7694e+07  20.9%     -   28s
H    0     0                    5.597656e+07 6.7694e+07  20.9%     -   29s
H    0     0                    5.598234e+07 6.7694e+07  20.9%     -   31s
H    0     0                    5.746422e+07 6.7694e+07  17.8%     -   42s
H    0     0                    5.759079e+07 6.7694e+07  17.5%     -   42s
H    0     0                    5.759111e+07 6.7694e+07  17.5%     -   42s
H    0     0                    5.759449e+07 6.7694e+07  17.5%     -   42s
H    0     0                    5.795244e+07 6.7693e+07  16.8%     -   70s
H    0     0                    5.795288e+07 6.7693e+07  16.8%     -   70s
H    0     0                    5.796121e+07 6.7693e+07  16.8%     -   70s
     0     0 6.7693e+07    0 4223 5.7961e+07 6.7693e+07  16.8%     -   73s
H    0     0                    5.799562e+07 6.7693e+07  16.7%     -   92s
     0     0 6.7693e+07    0 4809 5.7996e+07 6.7693e+07  16.7%     -  204s
     0     0 6.7693e+07    0 4714 5.7996e+07 6.7693e+07  16.7%     -  211s
H    0     0                    5.799674e+07 6.7692e+07  16.7%     -  301s
H    0     0                    5.799723e+07 6.7692e+07  16.7%     -  301s
H    0     0                    5.805475e+07 6.7692e+07  16.6%     -  305s
H    0     0                    5.879162e+07 6.7692e+07  15.1%     -  305s
H    0     0                    5.879298e+07 6.7692e+07  15.1%     -  305s
H    0     0                    5.879482e+07 6.7692e+07  15.1%     -  305s
H    0     0                    5.879674e+07 6.7692e+07  15.1%     -  305s
     0     0 6.7692e+07    0 5203 5.8797e+07 6.7692e+07  15.1%     -  307s
H    0     0                    5.880024e+07 6.7692e+07  15.1%     -  317s
H    0     0                    5.883893e+07 6.7692e+07  15.0%     -  508s
H    0     0                    5.883978e+07 6.7692e+07  15.0%     -  508s
H    0     0                    5.884009e+07 6.7692e+07  15.0%     -  508s
H    0     0                    5.884012e+07 6.7692e+07  15.0%     -  508s
H    0     0                    5.890530e+07 6.7692e+07  14.9%     -  508s
H    0     0                    5.890703e+07 6.7692e+07  14.9%     -  508s
     0     0 6.7692e+07    0 4774 5.8907e+07 6.7692e+07  14.9%     -  509s
     0     0 6.7692e+07    0 4910 5.8907e+07 6.7692e+07  14.9%     -  525s
H    0     0                    5.891151e+07 6.7692e+07  14.9%     -  672s
H    0     0                    5.891295e+07 6.7692e+07  14.9%     -  672s
H    0     0                    5.891499e+07 6.7692e+07  14.9%     -  672s
H    0     0                    5.891684e+07 6.7692e+07  14.9%     -  672s
     0     0 6.7692e+07    0 5373 5.8917e+07 6.7692e+07  14.9%     -  673s
H    0     0                    5.891754e+07 6.7692e+07  14.9%     -  675s
H    0     0                    5.891803e+07 6.7692e+07  14.9%     -  677s
H    0     0                    5.891808e+07 6.7692e+07  14.9%     -  689s
     0     0 6.7692e+07    0 5138 5.8918e+07 6.7692e+07  14.9%     -  779s
H    0     0                    5.891844e+07 6.7692e+07  14.9%     -  825s
     0     0 6.7692e+07    0 5183 5.8918e+07 6.7692e+07  14.9%     -  825s
H    0     0                    5.891846e+07 6.7692e+07  14.9%     -  919s
     0     0 6.7692e+07    0 5438 5.8918e+07 6.7692e+07  14.9%     -  919s
     0     0 6.7692e+07    0 5084 5.8918e+07 6.7692e+07  14.9%     -  949s
     0     0 6.7692e+07    0 5191 5.8918e+07 6.7692e+07  14.9%     - 1011s
     0     0 6.7692e+07    0 5191 5.8918e+07 6.7692e+07  14.9%     - 1014s
     0     0 6.7692e+07    0 5125 5.8918e+07 6.7692e+07  14.9%     - 1015s
     0     2 6.7692e+07    0 5125 5.8918e+07 6.7692e+07  14.9%     - 1124s
     1     4 6.7692e+07    1 5029 5.8918e+07 6.7692e+07  14.9%  5834 1154s
     3     7 6.7691e+07    2 4314 5.8918e+07 6.7692e+07  14.9% 12756 1199s
     6     9 6.7691e+07    3 4135 5.8918e+07 6.7692e+07  14.9% 16520 1228s
     8    11 6.7691e+07    4 3969 5.8918e+07 6.7692e+07  14.9% 14666 1265s
    10    13 6.7691e+07    5 3906 5.8918e+07 6.7692e+07  14.9% 12955 1333s
    12    19 6.7690e+07    6 3557 5.8918e+07 6.7692e+07  14.9% 13548 1471s
H   15    19                    5.891865e+07 6.7692e+07  14.9% 14994 1471s

Cutting planes:
  Gomory: 27
  MIR: 2
  Flow cover: 99
  Zero half: 4
  Mod-K: 3
  RLT: 2115
  Relax-and-lift: 87

Explored 18 nodes (683086 simplex iterations) in 3637.83 seconds (2564.22 work units)
Thread count was 8 (of 8 available processors)

Solution count 10: 5.89187e+07 5.89187e+07 5.89185e+07 ... 5.8913e+07

Time limit reached
Best objective 5.891865241425e+07, best bound 6.769190073431e+07, gap 14.8904%
